(set-info :smt-lib-version 2.6)
(set-logic QF_ALIA)
(set-info :source |
Benchmarks from Leonardo de Moura <demoura@csl.sri.com>

This benchmark was automatically translated into SMT-LIB format from
CVC format using CVC Lite
|)
(set-info :category "industrial")
(set-info :status sat)
(declare-fun x_0 () Int)
(declare-fun x_1 () Int)
(declare-fun x_2 () (Array Int Int))
(declare-fun x_3 () Int)
(declare-fun x_4 () Int)
(declare-fun x_5 () Bool)
(declare-fun x_6 () Int)
(declare-fun x_7 () (Array Int Int))
(declare-fun x_8 () Int)
(declare-fun x_9 () (Array Int Int))
(declare-fun x_10 () Int)
(declare-fun x_11 () Bool)
(declare-fun x_12 () Int)
(declare-fun x_13 () Int)
(declare-fun x_14 () Int)
(declare-fun x_15 () Int)
(declare-fun x_16 () Int)
(declare-fun x_17 () (Array Int Int))
(declare-fun x_18 () Int)
(declare-fun x_19 () Int)
(declare-fun x_20 () Int)
(declare-fun x_21 () Int)
(declare-fun x_22 () Int)
(declare-fun x_23 () (Array Int Int))
(declare-fun x_24 () Int)
(declare-fun x_25 () Bool)
(declare-fun x_26 () Int)
(declare-fun x_27 () Int)
(declare-fun x_28 () Int)
(declare-fun x_29 () Int)
(declare-fun x_30 () Int)
(declare-fun x_31 () (Array Int Int))
(declare-fun x_32 () Int)
(declare-fun x_33 () Int)
(declare-fun x_34 () Int)
(declare-fun x_35 () Int)
(declare-fun x_36 () Int)
(declare-fun x_37 () (Array Int Int))
(declare-fun x_38 () Int)
(declare-fun x_39 () Bool)
(declare-fun x_40 () Int)
(declare-fun x_41 () Int)
(declare-fun x_42 () Int)
(declare-fun x_43 () Int)
(declare-fun x_44 () Int)
(declare-fun x_45 () (Array Int Int))
(declare-fun x_46 () Int)
(declare-fun x_47 () Int)
(declare-fun x_48 () Int)
(declare-fun x_49 () Int)
(declare-fun x_50 () Int)
(declare-fun x_51 () (Array Int Int))
(declare-fun x_52 () Int)
(declare-fun x_53 () Bool)
(declare-fun x_54 () Int)
(declare-fun x_55 () Int)
(declare-fun x_56 () Int)
(declare-fun x_57 () Int)
(declare-fun x_58 () Int)
(declare-fun x_59 () (Array Int Int))
(declare-fun x_60 () Int)
(declare-fun x_61 () Int)
(declare-fun x_62 () Int)
(declare-fun x_63 () Int)
(declare-fun x_64 () Int)
(declare-fun x_65 () (Array Int Int))
(declare-fun x_66 () Int)
(declare-fun x_67 () Bool)
(declare-fun x_68 () Int)
(declare-fun x_69 () Int)
(declare-fun x_70 () Int)
(declare-fun x_71 () Int)
(declare-fun x_72 () Int)
(declare-fun x_73 () (Array Int Int))
(declare-fun x_74 () Int)
(declare-fun x_75 () Int)
(declare-fun x_76 () Int)
(declare-fun x_77 () Int)
(declare-fun x_78 () Int)
(declare-fun x_79 () (Array Int Int))
(declare-fun x_80 () Int)
(declare-fun x_81 () Bool)
(declare-fun x_82 () Int)
(declare-fun x_83 () Int)
(declare-fun x_84 () Int)
(declare-fun x_85 () Int)
(declare-fun x_86 () Int)
(declare-fun x_87 () (Array Int Int))
(declare-fun x_88 () Int)
(declare-fun x_89 () Int)
(declare-fun x_90 () Int)
(declare-fun x_91 () Int)
(declare-fun x_92 () Int)
(declare-fun x_93 () (Array Int Int))
(declare-fun x_94 () Int)
(declare-fun x_95 () Bool)
(declare-fun x_96 () Int)
(declare-fun x_97 () Int)
(declare-fun x_98 () Int)
(declare-fun x_99 () Int)
(declare-fun x_100 () Int)
(declare-fun x_101 () (Array Int Int))
(declare-fun x_102 () Int)
(declare-fun x_103 () Int)
(declare-fun x_104 () Int)
(declare-fun x_105 () Int)
(declare-fun x_106 () Int)
(declare-fun x_107 () (Array Int Int))
(declare-fun x_108 () Int)
(declare-fun x_109 () Bool)
(declare-fun x_110 () Int)
(declare-fun x_111 () Int)
(declare-fun x_112 () Int)
(declare-fun x_113 () Int)
(declare-fun x_114 () Int)
(declare-fun x_115 () (Array Int Int))
(declare-fun x_116 () Int)
(declare-fun x_117 () Int)
(declare-fun x_118 () Int)
(declare-fun x_119 () Int)
(declare-fun x_120 () Int)
(declare-fun x_121 () (Array Int Int))
(declare-fun x_122 () Int)
(declare-fun x_123 () Bool)
(declare-fun x_124 () Int)
(declare-fun x_125 () Int)
(declare-fun x_126 () Int)
(declare-fun x_127 () Int)
(declare-fun x_128 () Int)
(declare-fun x_129 () (Array Int Int))
(declare-fun x_130 () Int)
(declare-fun x_131 () Int)
(declare-fun x_132 () Int)
(declare-fun x_133 () Int)
(declare-fun x_134 () Int)
(declare-fun x_135 () (Array Int Int))
(declare-fun x_136 () Int)
(declare-fun x_137 () Bool)
(declare-fun x_138 () Int)
(declare-fun x_139 () Int)
(declare-fun x_140 () Int)
(declare-fun x_141 () Int)
(declare-fun x_142 () Int)
(declare-fun x_143 () (Array Int Int))
(declare-fun x_144 () Int)
(declare-fun x_145 () Int)
(declare-fun x_146 () Int)
(declare-fun x_147 () Int)
(declare-fun x_148 () Int)
(declare-fun x_149 () Int)
(declare-fun x_150 () Int)
(declare-fun x_151 () Int)
(declare-fun x_152 () Int)
(declare-fun x_153 () Int)
(declare-fun x_154 () Int)
(declare-fun x_155 () Int)
(declare-fun x_156 () Int)
(declare-fun x_157 () Int)
(declare-fun x_158 () Int)
(declare-fun x_159 () Int)
(declare-fun x_160 () Int)
(declare-fun x_161 () Int)
(declare-fun x_162 () Int)
(declare-fun x_163 () Int)
(declare-fun x_164 () Int)
(declare-fun x_165 () Int)
(declare-fun x_166 () Int)
(declare-fun x_167 () Int)
(declare-fun x_168 () Int)
(declare-fun x_169 () Int)
(declare-fun x_170 () Int)
(declare-fun x_171 () Int)
(declare-fun x_172 () Int)
(declare-fun x_173 () Int)
(declare-fun x_174 () Int)
(declare-fun x_175 () Int)
(declare-fun x_176 () Int)
(declare-fun x_177 () Int)
(declare-fun x_178 () Int)
(declare-fun x_179 () Int)
(declare-fun x_180 () Int)
(declare-fun x_181 () Int)
(declare-fun x_182 () Int)
(declare-fun x_183 () Int)
(declare-fun x_184 () Int)
(declare-fun x_185 () Int)
(declare-fun x_186 () Int)
(declare-fun x_187 () Int)
(declare-fun x_188 () Int)
(declare-fun x_189 () Int)
(declare-fun x_190 () Int)
(declare-fun x_191 () Int)
(declare-fun x_192 () Int)
(declare-fun x_193 () Int)
(declare-fun x_194 () Int)
(declare-fun x_195 () Int)
(declare-fun x_196 () Int)
(declare-fun x_197 () Int)
(declare-fun x_198 () Int)
(declare-fun x_199 () Int)
(declare-fun x_200 () Int)
(declare-fun x_201 () Int)
(declare-fun x_202 () Int)
(declare-fun x_203 () Int)
(declare-fun x_204 () Int)
(declare-fun x_205 () Int)
(declare-fun x_206 () Int)
(declare-fun x_207 () Int)
(declare-fun x_208 () Int)
(declare-fun x_209 () Int)
(declare-fun x_210 () Int)
(declare-fun x_211 () Int)
(assert (let ((?v_48 (= x_9 x_7)) (?v_45 (= x_10 x_0)) (?v_46 (= x_11 x_5)) (?v_49 (= x_12 x_1)) (?v_47 (not (<= x_1 x_0))) (?v_43 (= x_23 x_9)) (?v_40 (= x_24 x_10)) (?v_41 (= x_25 x_11)) (?v_44 (= x_26 x_12)) (?v_42 (not (<= x_12 x_10))) (?v_38 (= x_37 x_23)) (?v_35 (= x_38 x_24)) (?v_36 (= x_39 x_25)) (?v_39 (= x_40 x_26)) (?v_37 (not (<= x_26 x_24))) (?v_33 (= x_51 x_37)) (?v_30 (= x_52 x_38)) (?v_31 (= x_53 x_39)) (?v_34 (= x_54 x_40)) (?v_32 (not (<= x_40 x_38))) (?v_28 (= x_65 x_51)) (?v_25 (= x_66 x_52)) (?v_26 (= x_67 x_53)) (?v_29 (= x_68 x_54)) (?v_27 (not (<= x_54 x_52))) (?v_23 (= x_79 x_65)) (?v_20 (= x_80 x_66)) (?v_21 (= x_81 x_67)) (?v_24 (= x_82 x_68)) (?v_22 (not (<= x_68 x_66))) (?v_18 (= x_93 x_79)) (?v_15 (= x_94 x_80)) (?v_16 (= x_95 x_81)) (?v_19 (= x_96 x_82)) (?v_17 (not (<= x_82 x_80))) (?v_13 (= x_107 x_93)) (?v_10 (= x_108 x_94)) (?v_11 (= x_109 x_95)) (?v_14 (= x_110 x_96)) (?v_12 (not (<= x_96 x_94))) (?v_8 (= x_121 x_107)) (?v_5 (= x_122 x_108)) (?v_6 (= x_123 x_109)) (?v_9 (= x_124 x_110)) (?v_7 (not (<= x_110 x_108))) (?v_3 (= x_135 x_121)) (?v_0 (= x_136 x_122)) (?v_1 (= x_137 x_123)) (?v_4 (= x_138 x_124)) (?v_2 (not (<= x_124 x_122))) (?v_50 (select x_2 x_3)) (?v_51 (select x_2 x_4))) (and (and (and (and (and (and (and (and (and (and (and (and (and (and (and (and (and (and (and (and (and (and (and (and (and (and (and (and (and (and (and (and (and (and (and (and (and (and (and (and (and (and (and (and (and (and (and (and (and (and (and (and (and (and (and (and (and (and (and (and (and (and (and (and (and (and (and (and (and (and (and (and (and (and (and (and (and (and (and (and (and (and (and (and (and (and (and (and (and (and (and (and (and (and (and (and (and (and (and (and (and (not (= x_4 x_3)) (= x_0 0)) (= x_1 0)) (= x_148 ?v_50)) (= x_148 1)) (= x_149 ?v_51)) (= x_149 1)) x_5) (= x_6 0)) (= x_150 (select x_7 x_0))) (= x_8 x_150)) (= x_151 (select x_9 x_10))) (= x_22 x_151)) (= x_152 (select x_23 x_24))) (= x_36 x_152)) (= x_153 (select x_37 x_38))) (= x_50 x_153)) (= x_154 (select x_51 x_52))) (= x_64 x_154)) (= x_155 (select x_65 x_66))) (= x_78 x_155)) (= x_156 (select x_79 x_80))) (= x_92 x_156)) (= x_157 (select x_93 x_94))) (= x_106 x_157)) (= x_158 (select x_107 x_108))) (= x_120 x_158)) (= x_159 (select x_121 x_122))) (= x_134 x_159)) (= x_139 (+ x_125 1))) (= x_160 (select x_129 x_141))) (= x_161 (select x_129 x_144))) (= x_162 (select x_129 x_146))) (or (or (or (and (and (and (and (and (and (and (= x_140 0) (= x_138 (+ x_124 1))) ?v_0) ?v_1) (= x_142 x_141)) (= x_160 1)) (= x_143 (store x_129 x_141 2))) (= x_135 (store x_121 x_124 x_141))) (and (and (and (and (and (and (and (and (and (= x_140 1) ?v_2) ?v_0) ?v_1) ?v_3) ?v_4) (= x_145 x_144)) (= x_161 2)) (= x_134 x_144)) (= x_143 (store x_129 x_144 3)))) (and (and (and (and (and (and (and (and (and (= x_140 2) ?v_2) (= x_136 (+ x_122 1))) ?v_1) ?v_3) ?v_4) (= x_147 x_146)) (= x_162 3)) (or (not (<= x_125 5)) (= x_134 x_146))) (= x_143 (store x_129 x_146 1)))) (and (and (and (and (and (= x_140 3) ?v_3) ?v_0) ?v_1) (= x_143 x_129)) ?v_4))) (= x_125 (+ x_111 1))) (= x_163 (select x_115 x_127))) (= x_164 (select x_115 x_130))) (= x_165 (select x_115 x_132))) (or (or (or (and (and (and (and (and (and (and (= x_126 0) (= x_124 (+ x_110 1))) ?v_5) ?v_6) (= x_128 x_127)) (= x_163 1)) (= x_129 (store x_115 x_127 2))) (= x_121 (store x_107 x_110 x_127))) (and (and (and (and (and (and (and (and (and (= x_126 1) ?v_7) ?v_5) ?v_6) ?v_8) ?v_9) (= x_131 x_130)) (= x_164 2)) (= x_120 x_130)) (= x_129 (store x_115 x_130 3)))) (and (and (and (and (and (and (and (and (and (= x_126 2) ?v_7) (= x_122 (+ x_108 1))) ?v_6) ?v_8) ?v_9) (= x_133 x_132)) (= x_165 3)) (or (not (<= x_111 5)) (= x_120 x_132))) (= x_129 (store x_115 x_132 1)))) (and (and (and (and (and (= x_126 3) ?v_8) ?v_5) ?v_6) (= x_129 x_115)) ?v_9))) (= x_111 (+ x_97 1))) (= x_166 (select x_101 x_113))) (= x_167 (select x_101 x_116))) (= x_168 (select x_101 x_118))) (or (or (or (and (and (and (and (and (and (and (= x_112 0) (= x_110 (+ x_96 1))) ?v_10) ?v_11) (= x_114 x_113)) (= x_166 1)) (= x_115 (store x_101 x_113 2))) (= x_107 (store x_93 x_96 x_113))) (and (and (and (and (and (and (and (and (and (= x_112 1) ?v_12) ?v_10) ?v_11) ?v_13) ?v_14) (= x_117 x_116)) (= x_167 2)) (= x_106 x_116)) (= x_115 (store x_101 x_116 3)))) (and (and (and (and (and (and (and (and (and (= x_112 2) ?v_12) (= x_108 (+ x_94 1))) ?v_11) ?v_13) ?v_14) (= x_119 x_118)) (= x_168 3)) (or (not (<= x_97 5)) (= x_106 x_118))) (= x_115 (store x_101 x_118 1)))) (and (and (and (and (and (= x_112 3) ?v_13) ?v_10) ?v_11) (= x_115 x_101)) ?v_14))) (= x_97 (+ x_83 1))) (= x_169 (select x_87 x_99))) (= x_170 (select x_87 x_102))) (= x_171 (select x_87 x_104))) (or (or (or (and (and (and (and (and (and (and (= x_98 0) (= x_96 (+ x_82 1))) ?v_15) ?v_16) (= x_100 x_99)) (= x_169 1)) (= x_101 (store x_87 x_99 2))) (= x_93 (store x_79 x_82 x_99))) (and (and (and (and (and (and (and (and (and (= x_98 1) ?v_17) ?v_15) ?v_16) ?v_18) ?v_19) (= x_103 x_102)) (= x_170 2)) (= x_92 x_102)) (= x_101 (store x_87 x_102 3)))) (and (and (and (and (and (and (and (and (and (= x_98 2) ?v_17) (= x_94 (+ x_80 1))) ?v_16) ?v_18) ?v_19) (= x_105 x_104)) (= x_171 3)) (or (not (<= x_83 5)) (= x_92 x_104))) (= x_101 (store x_87 x_104 1)))) (and (and (and (and (and (= x_98 3) ?v_18) ?v_15) ?v_16) (= x_101 x_87)) ?v_19))) (= x_83 (+ x_69 1))) (= x_172 (select x_73 x_85))) (= x_173 (select x_73 x_88))) (= x_174 (select x_73 x_90))) (or (or (or (and (and (and (and (and (and (and (= x_84 0) (= x_82 (+ x_68 1))) ?v_20) ?v_21) (= x_86 x_85)) (= x_172 1)) (= x_87 (store x_73 x_85 2))) (= x_79 (store x_65 x_68 x_85))) (and (and (and (and (and (and (and (and (and (= x_84 1) ?v_22) ?v_20) ?v_21) ?v_23) ?v_24) (= x_89 x_88)) (= x_173 2)) (= x_78 x_88)) (= x_87 (store x_73 x_88 3)))) (and (and (and (and (and (and (and (and (and (= x_84 2) ?v_22) (= x_80 (+ x_66 1))) ?v_21) ?v_23) ?v_24) (= x_91 x_90)) (= x_174 3)) (or (not (<= x_69 5)) (= x_78 x_90))) (= x_87 (store x_73 x_90 1)))) (and (and (and (and (and (= x_84 3) ?v_23) ?v_20) ?v_21) (= x_87 x_73)) ?v_24))) (= x_69 (+ x_55 1))) (= x_175 (select x_59 x_71))) (= x_176 (select x_59 x_74))) (= x_177 (select x_59 x_76))) (or (or (or (and (and (and (and (and (and (and (= x_70 0) (= x_68 (+ x_54 1))) ?v_25) ?v_26) (= x_72 x_71)) (= x_175 1)) (= x_73 (store x_59 x_71 2))) (= x_65 (store x_51 x_54 x_71))) (and (and (and (and (and (and (and (and (and (= x_70 1) ?v_27) ?v_25) ?v_26) ?v_28) ?v_29) (= x_75 x_74)) (= x_176 2)) (= x_64 x_74)) (= x_73 (store x_59 x_74 3)))) (and (and (and (and (and (and (and (and (and (= x_70 2) ?v_27) (= x_66 (+ x_52 1))) ?v_26) ?v_28) ?v_29) (= x_77 x_76)) (= x_177 3)) (or (not (<= x_55 5)) (= x_64 x_76))) (= x_73 (store x_59 x_76 1)))) (and (and (and (and (and (= x_70 3) ?v_28) ?v_25) ?v_26) (= x_73 x_59)) ?v_29))) (= x_55 (+ x_41 1))) (= x_178 (select x_45 x_57))) (= x_179 (select x_45 x_60))) (= x_180 (select x_45 x_62))) (or (or (or (and (and (and (and (and (and (and (= x_56 0) (= x_54 (+ x_40 1))) ?v_30) ?v_31) (= x_58 x_57)) (= x_178 1)) (= x_59 (store x_45 x_57 2))) (= x_51 (store x_37 x_40 x_57))) (and (and (and (and (and (and (and (and (and (= x_56 1) ?v_32) ?v_30) ?v_31) ?v_33) ?v_34) (= x_61 x_60)) (= x_179 2)) (= x_50 x_60)) (= x_59 (store x_45 x_60 3)))) (and (and (and (and (and (and (and (and (and (= x_56 2) ?v_32) (= x_52 (+ x_38 1))) ?v_31) ?v_33) ?v_34) (= x_63 x_62)) (= x_180 3)) (or (not (<= x_41 5)) (= x_50 x_62))) (= x_59 (store x_45 x_62 1)))) (and (and (and (and (and (= x_56 3) ?v_33) ?v_30) ?v_31) (= x_59 x_45)) ?v_34))) (= x_41 (+ x_27 1))) (= x_181 (select x_31 x_43))) (= x_182 (select x_31 x_46))) (= x_183 (select x_31 x_48))) (or (or (or (and (and (and (and (and (and (and (= x_42 0) (= x_40 (+ x_26 1))) ?v_35) ?v_36) (= x_44 x_43)) (= x_181 1)) (= x_45 (store x_31 x_43 2))) (= x_37 (store x_23 x_26 x_43))) (and (and (and (and (and (and (and (and (and (= x_42 1) ?v_37) ?v_35) ?v_36) ?v_38) ?v_39) (= x_47 x_46)) (= x_182 2)) (= x_36 x_46)) (= x_45 (store x_31 x_46 3)))) (and (and (and (and (and (and (and (and (and (= x_42 2) ?v_37) (= x_38 (+ x_24 1))) ?v_36) ?v_38) ?v_39) (= x_49 x_48)) (= x_183 3)) (or (not (<= x_27 5)) (= x_36 x_48))) (= x_45 (store x_31 x_48 1)))) (and (and (and (and (and (= x_42 3) ?v_38) ?v_35) ?v_36) (= x_45 x_31)) ?v_39))) (= x_27 (+ x_13 1))) (= x_184 (select x_17 x_29))) (= x_185 (select x_17 x_32))) (= x_186 (select x_17 x_34))) (or (or (or (and (and (and (and (and (and (and (= x_28 0) (= x_26 (+ x_12 1))) ?v_40) ?v_41) (= x_30 x_29)) (= x_184 1)) (= x_31 (store x_17 x_29 2))) (= x_23 (store x_9 x_12 x_29))) (and (and (and (and (and (and (and (and (and (= x_28 1) ?v_42) ?v_40) ?v_41) ?v_43) ?v_44) (= x_33 x_32)) (= x_185 2)) (= x_22 x_32)) (= x_31 (store x_17 x_32 3)))) (and (and (and (and (and (and (and (and (and (= x_28 2) ?v_42) (= x_24 (+ x_10 1))) ?v_41) ?v_43) ?v_44) (= x_35 x_34)) (= x_186 3)) (or (not (<= x_13 5)) (= x_22 x_34))) (= x_31 (store x_17 x_34 1)))) (and (and (and (and (and (= x_28 3) ?v_43) ?v_40) ?v_41) (= x_31 x_17)) ?v_44))) (= x_13 (+ x_6 1))) (= x_187 (select x_2 x_15))) (= x_188 (select x_2 x_18))) (= x_189 (select x_2 x_20))) (or (or (or (and (and (and (and (and (and (and (= x_14 0) (= x_12 (+ x_1 1))) ?v_45) ?v_46) (= x_16 x_15)) (= x_187 1)) (= x_17 (store x_2 x_15 2))) (= x_9 (store x_7 x_1 x_15))) (and (and (and (and (and (and (and (and (and (= x_14 1) ?v_47) ?v_45) ?v_46) ?v_48) ?v_49) (= x_19 x_18)) (= x_188 2)) (= x_8 x_18)) (= x_17 (store x_2 x_18 3)))) (and (and (and (and (and (and (and (and (and (= x_14 2) ?v_47) (= x_10 (+ x_0 1))) ?v_46) ?v_48) ?v_49) (= x_21 x_20)) (= x_189 3)) (or (not (<= x_6 5)) (= x_8 x_20))) (= x_17 (store x_2 x_20 1)))) (and (and (and (and (and (= x_14 3) ?v_48) ?v_45) ?v_46) (= x_17 x_2)) ?v_49))) (= x_190 (select x_143 x_3))) (= x_191 (select x_143 x_4))) (= x_192 (select x_129 x_3))) (= x_193 (select x_129 x_4))) (= x_194 (select x_115 x_3))) (= x_195 (select x_115 x_4))) (= x_196 (select x_101 x_3))) (= x_197 (select x_101 x_4))) (= x_198 (select x_87 x_3))) (= x_199 (select x_87 x_4))) (= x_200 (select x_73 x_3))) (= x_201 (select x_73 x_4))) (= x_202 (select x_59 x_3))) (= x_203 (select x_59 x_4))) (= x_204 (select x_45 x_3))) (= x_205 (select x_45 x_4))) (= x_206 (select x_31 x_3))) (= x_207 (select x_31 x_4))) (= x_208 (select x_17 x_3))) (= x_209 (select x_17 x_4))) (= x_210 ?v_50)) (= x_211 ?v_51)) (or (or (or (or (or (or (or (or (or (or (and (= x_190 3) (= x_191 3)) (and (= x_192 3) (= x_193 3))) (and (= x_194 3) (= x_195 3))) (and (= x_196 3) (= x_197 3))) (and (= x_198 3) (= x_199 3))) (and (= x_200 3) (= x_201 3))) (and (= x_202 3) (= x_203 3))) (and (= x_204 3) (= x_205 3))) (and (= x_206 3) (= x_207 3))) (and (= x_208 3) (= x_209 3))) (and (= x_210 3) (= x_211 3))))))
(check-sat)
(exit)
